c   #vars: 118   #clauses: 541   #literals: 1486
c 
p cnf 118 541
-1 -2 0
-3 -4 0
-5 -6 0
-7 -8 0
-9 -10 0
-11 -12 0
-13 -14 0
-15 -16 0
-17 -18 0
-19 -20 0
-21 -22 0
-23 -24 0
-25 -26 0
-27 -28 0
-29 -30 0
32 43 44 -76 0
-33 -34 0
-35 -36 0
25 26 -65 70 0
-37 -38 0
-39 -40 0
-41 -42 0
-43 -44 0
32 -43 76 77 0
55 56 80 81 0
-45 -46 0
-47 -48 0
61 62 78 79 0
1 2 91 -94 0
50 67 68 -90 0
45 46 89 90 0
69 -92 113 114 0
-51 -52 0
-53 -54 0
-55 -56 0
-57 -58 0
-59 -60 0
-61 -62 0
-63 -64 0
-65 -66 0
-67 -68 0
19 20 84 -115 0
17 18 -63 96 0
-72 -73 0
-74 -75 0
31 55 56 -63 0
53 54 110 111 0
-76 -77 0
-78 -79 0
-80 -81 0
-82 -83 0
-1 -76 -77 112 0
5 6 67 68 0
53 54 104 105 0
-33 91 94 95 0
-85 -86 0
-87 -88 0
-89 -90 0
67 68 104 105 0
37 38 106 107 0
41 42 -89 99 0
-92 -93 0
19 20 82 83 0
-94 -95 0
-97 -98 0
49 50 -90 -100 0
-100 -101 0
-102 -103 0
-104 -105 0
-106 -107 0
-108 -109 0
-110 -111 0
1 2 108 109 0
-113 -114 0
17 18 89 90 0
-115 -116 0
3 4 117 118 0
-117 -118 0
-1 -7 0
-2 -8 0
-1 -39 0
-2 -40 0
27 28 97 98 0
41 42 -67 99 0
-2 -91 0
51 52 108 109 0
-1 -100 0
-2 -101 0
108 109 113 114 0
-1 -108 0
-2 -109 0
5 6 19 20 0
-2 -112 0
-3 -17 0
-4 -18 0
65 66 102 103 0
-3 -41 0
-4 -42 0
-17 31 55 56 0
-3 -57 0
-4 -58 0
47 48 65 66 0
-3 -72 0
-4 -73 0
-3 -117 0
-4 -118 0
-5 -19 0
-6 -20 0
1 2 7 8 0
-5 -23 0
-6 -24 0
7 8 72 73 0
-5 -47 0
-6 -48 0
9 10 47 48 0
-21 84 115 116 0
7 8 110 111 0
-5 -67 0
-6 -68 0
65 66 76 77 0
-5 -97 0
-6 -98 0
11 12 80 81 0
-7 -25 0
-8 -26 0
11 12 78 79 0
-7 -57 0
-8 -58 0
-9 32 76 77 0
-7 -61 0
-8 -62 0
72 73 87 88 0
-7 -72 0
-8 -73 0
-7 -110 0
-8 -111 0
19 20 55 56 0
-9 -29 0
-10 -30 0
49 -50 78 79 0
-10 -32 0
25 26 61 62 0
-9 -39 0
-10 -40 0
74 75 94 95 0
-9 -47 0
-10 -48 0
11 12 15 16 0
-11 -15 0
-12 -16 0
15 16 92 93 0
-11 -17 0
-12 -18 0
15 16 85 86 0
-11 -57 0
-12 -58 0
13 14 41 42 0
-11 -78 0
-12 -79 0
80 81 85 86 0
-11 -80 0
-12 -81 0
94 95 117 118 0
-11 -115 0
-12 -116 0
21 22 110 111 0
-13 -19 0
-14 -20 0
-13 -41 0
-14 -42 0
-13 -43 0
-14 -44 0
-1 112 115 116 0
-13 -97 0
-14 -98 0
104 105 113 114 0
-13 -100 0
-14 -101 0
5 6 23 24 0
-15 -17 0
-16 -18 0
23 24 59 60 0
-15 -47 0
-16 -48 0
23 24 117 118 0
-15 -82 0
-16 -83 0
-33 41 42 71 0
-15 -85 0
-16 -86 0
51 52 100 101 0
-15 -92 0
-16 -93 0
82 83 102 103 0
-9 32 43 44 0
-18 -31 0
29 30 41 42 0
-17 -47 0
-18 -48 0
29 30 97 98 0
-17 -89 0
-18 -90 0
-18 -96 0
43 44 63 64 0
-19 -39 0
-20 -40 0
-19 -55 0
-20 -56 0
53 54 61 62 0
-19 -57 0
-20 -58 0
94 95 106 107 0
-19 -82 0
-20 -83 0
53 54 -67 -68 0
-1 29 30 112 0
-20 -84 0
39 40 67 68 0
-19 -104 0
-20 -105 0
21 22 27 28 0
-21 -27 0
-22 -28 0
27 28 74 75 0
-21 -43 0
-22 -44 0
21 22 84 -115 0
51 52 67 68 0
-76 -77 112 -115 0
-22 -84 0
3 4 17 18 0
-21 -110 0
-22 -111 0
7 8 25 26 0
-23 -41 0
-24 -42 0
-23 -59 0
-24 -60 0
25 26 108 109 0
-23 -76 0
-24 -77 0
-23 -97 0
-24 -98 0
7 8 61 62 0
-23 -117 0
-24 -118 0
-25 -33 0
-26 -34 0
-17 63 64 96 0
-25 -61 0
-26 -62 0
-26 -70 0
59 60 113 114 0
-25 -108 0
-26 -109 0
-27 -59 0
-28 -60 0
45 46 51 52 0
-27 -67 0
-28 -68 0
49 50 -78 -90 0
-27 -74 0
-28 -75 0
23 24 76 77 0
-27 -97 0
-28 -98 0
25 26 33 34 0
-29 -41 0
-30 -42 0
33 34 108 109 0
-29 -61 0
-30 -62 0
-29 -82 0
-30 -83 0
67 68 -89 99 0
-29 -97 0
-30 -98 0
35 36 94 95 0
-30 -112 0
-33 71 104 105 0
9 10 32 -76 0
-31 -56 0
1 2 -33 91 0
9 10 32 -43 0
-31 -64 0
-1 33 34 91 0
-32 -44 0
82 83 97 98 0
-32 -77 0
1 2 39 40 0
-33 -57 0
-34 -58 0
-63 92 93 96 0
-34 -71 0
55 56 104 105 0
-67 89 90 99 0
-34 -91 0
39 40 92 93 0
-33 -106 0
-34 -107 0
-33 -108 0
-34 -109 0
11 12 115 116 0
-35 -39 0
-36 -40 0
-35 -45 0
-36 -46 0
89 90 94 95 0
-35 -57 0
-36 -58 0
15 16 82 83 0
-35 -94 0
-36 -95 0
29 30 61 62 0
49 -50 100 101 0
25 26 -51 70 0
57 58 69 -92 0
37 38 104 105 0
57 58 69 -113 0
35 36 45 46 0
-37 -63 0
-38 -64 0
13 14 97 98 0
-37 -65 0
-38 -66 0
11 12 57 58 0
-37 -104 0
-38 -105 0
47 48 102 103 0
-37 -106 0
-38 -107 0
21 22 43 44 0
-39 -67 0
-40 -68 0
13 14 100 101 0
-39 -92 0
-40 -93 0
-25 65 66 70 0
-41 -45 0
-42 -46 0
3 4 57 58 0
-17 92 93 96 0
-42 -71 0
33 34 57 58 0
-42 -99 0
-43 -63 0
-44 -64 0
41 42 45 46 0
49 -78 100 101 0
-43 -76 0
-44 -77 0
9 10 29 30 0
17 18 -92 96 0
-45 -51 0
-46 -52 0
-45 -89 0
-46 -90 0
37 38 63 64 0
-47 -59 0
-48 -60 0
3 4 72 73 0
-47 -65 0
-48 -66 0
102 103 106 107 0
-47 -102 0
-48 -103 0
27 28 67 68 0
33 34 71 -104 0
7 8 57 58 0
33 34 -41 71 0
49 50 -68 -100 0
-49 50 67 68 0
-57 69 113 114 0
5 6 97 98 0
50 -68 89 90 0
-49 -79 0
19 20 104 105 0
-49 50 89 90 0
-49 -101 0
61 62 113 114 0
17 18 31 -55 0
-50 -67 0
69 92 93 -113 0
13 14 19 20 0
-50 -89 0
-57 69 92 93 0
27 28 59 60 0
-51 -67 0
-52 -68 0
41 42 71 -104 0
-52 -70 0
59 60 117 118 0
-51 -100 0
-52 -101 0
72 73 82 83 0
-51 -108 0
-52 -109 0
-53 -61 0
-54 -62 0
31 -55 63 64 0
-53 -104 0
-54 -105 0
-53 -110 0
-54 -111 0
55 56 87 88 0
-53 -115 0
-54 -116 0
74 75 85 86 0
-55 -80 0
-56 -81 0
-55 -87 0
-56 -88 0
63 64 89 90 0
-55 -104 0
-56 -105 0
-51 65 66 70 0
19 20 -21 84 0
-58 -69 0
-59 -113 0
-60 -114 0
5 6 47 48 0
-59 -117 0
-60 -118 0
61 62 76 77 0
-61 -76 0
-62 -77 0
-61 -78 0
-62 -79 0
1 2 100 101 0
-61 -113 0
-62 -114 0
37 38 65 66 0
-63 -89 0
-64 -90 0
74 75 110 111 0
-64 -96 0
-19 84 115 116 0
-66 -70 0
72 73 80 81 0
-65 -76 0
-66 -77 0
82 83 92 93 0
-65 -102 0
-66 -103 0
23 24 41 42 0
-17 31 63 64 0
13 14 43 44 0
-68 -99 0
-67 -104 0
-68 -105 0
15 16 17 18 0
-69 -93 0
85 86 102 103 0
-69 -114 0
9 10 39 40 0
51 52 -65 70 0
19 20 39 40 0
63 64 -92 96 0
-71 -105 0
78 79 106 107 0
-72 -80 0
-73 -81 0
-72 -82 0
-73 -83 0
-72 -87 0
-73 -88 0
87 88 115 116 0
-74 -85 0
-75 -86 0
43 44 76 77 0
-74 -94 0
-75 -95 0
35 36 57 58 0
-74 -110 0
-75 -111 0
19 20 57 58 0
-1 91 94 95 0
1 2 112 -115 0
-29 112 115 116 0
-78 -106 0
-79 -107 0
-41 67 68 99 0
-80 -85 0
-81 -86 0
49 50 -68 -78 0
-82 -92 0
-83 -93 0
87 88 102 103 0
-82 -97 0
-83 -98 0
33 34 106 107 0
-82 -102 0
-83 -103 0
15 16 47 48 0
-25 51 52 70 0
11 12 17 18 0
17 18 31 -63 0
-19 21 22 84 0
29 30 82 83 0
29 30 112 -115 0
-84 -116 0
35 36 39 40 0
33 34 91 -94 0
1 2 -29 112 0
-85 -102 0
-86 -103 0
-87 -102 0
-88 -103 0
94 95 100 101 0
-87 -106 0
-88 -107 0
49 78 79 -100 0
-87 -115 0
-88 -116 0
23 24 97 98 0
-89 -94 0
-90 -95 0
-29 -76 -77 112 0
-90 -99 0
17 18 47 48 0
-41 89 90 99 0
-91 -95 0
-93 -96 0
47 48 59 60 0
-94 -100 0
-95 -101 0
53 54 115 116 0
-94 -106 0
-95 -107 0
3 4 41 42 0
-94 -117 0
-95 -118 0
87 88 106 107 0
-102 -106 0
-103 -107 0
-104 -113 0
-105 -114 0
-108 -113 0
-109 -114 0
-41 71 104 105 0
-112 -116 0
